
Gurobi 8.1.1 (linux64, Python) logging started Sat Sep  7 21:51:58 2019

Academic license - for non-commercial use only

Gurobi 8.1.1 (linux64, Python) logging started Sat Sep  7 21:53:10 2019

Academic license - for non-commercial use only

Gurobi 8.1.1 (linux64, Python) logging started Tue Sep 10 00:46:59 2019

Academic license - for non-commercial use only

Gurobi 8.1.1 (linux64, Python) logging started Tue Sep 10 00:47:54 2019

Academic license - for non-commercial use only

Gurobi 8.1.1 (linux64, Python) logging started Tue Sep 10 00:53:37 2019

Academic license - for non-commercial use only

Gurobi 8.1.1 (linux64, Python) logging started Tue Sep 10 01:49:26 2019

Academic license - for non-commercial use only

Gurobi 8.1.1 (linux64, Python) logging started Tue Sep 10 01:51:00 2019

Academic license - for non-commercial use only

Gurobi 8.1.1 (linux64, Python) logging started Tue Sep 10 02:43:07 2019

Academic license - for non-commercial use only

Gurobi 8.1.1 (linux64, Python) logging started Tue Sep 10 13:11:44 2019

Academic license - for non-commercial use only

Gurobi 8.1.1 (linux64, Python) logging started Tue Sep 10 13:12:15 2019

Academic license - for non-commercial use only

Gurobi 8.1.1 (linux64, Python) logging started Tue Sep 10 13:15:45 2019

Academic license - for non-commercial use only

Gurobi 8.1.1 (linux64, Python) logging started Tue Sep 10 13:17:34 2019

Academic license - for non-commercial use only

Gurobi 8.1.1 (linux64, Python) logging started Tue Sep 10 13:24:38 2019

Academic license - for non-commercial use only

Gurobi 8.1.1 (linux64, Python) logging started Tue Sep 10 13:25:19 2019

Academic license - for non-commercial use only

Gurobi 8.1.1 (linux64, Python) logging started Tue Sep 10 14:13:35 2019

Academic license - for non-commercial use only

Gurobi 8.1.1 (linux64, Python) logging started Wed Sep 11 20:19:12 2019

Academic license - for non-commercial use only

Gurobi 8.1.1 (linux64, Python) logging started Wed Sep 11 20:24:41 2019

Academic license - for non-commercial use only

Gurobi 8.1.1 (linux64, Python) logging started Thu Sep 12 14:35:19 2019

Academic license - for non-commercial use only

Gurobi 8.1.1 (linux64, Python) logging started Thu Sep 12 14:45:22 2019

Academic license - for non-commercial use only

Gurobi 8.1.1 (linux64, Python) logging started Thu Sep 12 15:05:15 2019

Academic license - for non-commercial use only

Gurobi 8.1.1 (linux64, Python) logging started Thu Sep 12 15:15:08 2019

Academic license - for non-commercial use only

Gurobi 8.1.1 (linux64, Python) logging started Thu Sep 12 15:15:17 2019

Academic license - for non-commercial use only

Gurobi 8.1.1 (linux64, Python) logging started Thu Sep 12 15:26:17 2019

Academic license - for non-commercial use only

Gurobi 8.1.1 (linux64, Python) logging started Thu Sep 19 17:37:27 2019

Academic license - for non-commercial use only

Gurobi 8.1.1 (linux64, Python) logging started Thu Sep 19 17:37:35 2019

Academic license - for non-commercial use only

Gurobi 8.1.1 (linux64, Python) logging started Thu Sep 19 17:38:01 2019

Academic license - for non-commercial use only

Gurobi 8.1.1 (linux64, Python) logging started Thu Sep 19 17:38:09 2019

Academic license - for non-commercial use only

Gurobi 8.1.1 (linux64, Python) logging started Thu Sep 19 17:40:13 2019

Academic license - for non-commercial use only

Gurobi 8.1.1 (linux64, Python) logging started Thu Sep 19 18:04:48 2019

Academic license - for non-commercial use only

Gurobi 8.1.1 (linux64, Python) logging started Thu Sep 19 18:18:00 2019

Academic license - for non-commercial use only

Gurobi 8.1.1 (linux64, Python) logging started Thu Sep 19 18:25:55 2019

Academic license - for non-commercial use only

Gurobi 8.1.1 (linux64, Python) logging started Thu Sep 19 18:50:57 2019

Academic license - for non-commercial use only

Gurobi 8.1.1 (linux64, Python) logging started Thu Sep 19 18:51:39 2019

Academic license - for non-commercial use only

Gurobi 8.1.1 (linux64, Python) logging started Thu Sep 19 18:51:51 2019

Academic license - for non-commercial use only

Gurobi 8.1.1 (linux64, Python) logging started Thu Sep 19 18:53:43 2019

Academic license - for non-commercial use only

Gurobi 8.1.1 (linux64, Python) logging started Thu Sep 19 18:54:32 2019

Academic license - for non-commercial use only

Gurobi 8.1.1 (linux64, Python) logging started Thu Sep 19 19:07:24 2019

Academic license - for non-commercial use only

Gurobi 8.1.1 (linux64, Python) logging started Thu Sep 19 19:08:26 2019

Academic license - for non-commercial use only

Gurobi 8.1.1 (linux64, Python) logging started Thu Sep 19 19:09:02 2019

Academic license - for non-commercial use only

Gurobi 8.1.1 (linux64, Python) logging started Thu Sep 19 19:09:39 2019

Academic license - for non-commercial use only

Gurobi 8.1.1 (linux64, Python) logging started Thu Sep 19 19:12:04 2019

Academic license - for non-commercial use only

Gurobi 8.1.1 (linux64, Python) logging started Thu Sep 19 19:12:44 2019

Academic license - for non-commercial use only

Gurobi 8.1.1 (linux64, Python) logging started Thu Sep 19 19:16:03 2019

Academic license - for non-commercial use only

Gurobi 8.1.1 (linux64, Python) logging started Fri Sep 20 00:14:01 2019

Academic license - for non-commercial use only

Gurobi 8.1.1 (linux64, Python) logging started Fri Sep 20 00:45:56 2019

Academic license - for non-commercial use only

Gurobi 8.1.1 (linux64, Python) logging started Fri Sep 20 00:46:50 2019

Academic license - for non-commercial use only

Gurobi 8.1.1 (linux64, Python) logging started Fri Sep 20 00:48:00 2019

Academic license - for non-commercial use only

Gurobi 8.1.1 (linux64, Python) logging started Fri Sep 20 00:59:11 2019

Academic license - for non-commercial use only

Gurobi 8.1.1 (linux64, Python) logging started Fri Sep 20 01:00:05 2019

Academic license - for non-commercial use only

Gurobi 8.1.1 (linux64, Python) logging started Fri Sep 20 01:01:16 2019

Academic license - for non-commercial use only

Gurobi 8.1.1 (linux64, Python) logging started Fri Sep 20 01:05:28 2019

Academic license - for non-commercial use only

Gurobi 8.1.1 (linux64, Python) logging started Fri Sep 20 01:06:33 2019

Academic license - for non-commercial use only

Gurobi 8.1.1 (linux64, Python) logging started Fri Sep 20 01:09:01 2019

Academic license - for non-commercial use only

Gurobi 8.1.1 (linux64, Python) logging started Fri Sep 20 01:10:06 2019

Academic license - for non-commercial use only

Gurobi 8.1.1 (linux64, Python) logging started Fri Sep 20 01:10:39 2019

Academic license - for non-commercial use only

Gurobi 8.1.1 (linux64, Python) logging started Fri Sep 20 01:42:36 2019

Academic license - for non-commercial use only

Gurobi 8.1.1 (linux64, Python) logging started Fri Sep 20 01:43:02 2019

Academic license - for non-commercial use only

Gurobi 8.1.1 (linux64, Python) logging started Fri Sep 20 01:44:08 2019

Academic license - for non-commercial use only

Gurobi 8.1.1 (linux64, Python) logging started Fri Sep 20 01:45:41 2019

Academic license - for non-commercial use only

Gurobi 8.1.1 (linux64, Python) logging started Fri Sep 20 01:47:27 2019

Academic license - for non-commercial use only

Gurobi 8.1.1 (linux64, Python) logging started Fri Sep 20 01:52:14 2019

Academic license - for non-commercial use only

Gurobi 8.1.1 (linux64, Python) logging started Fri Sep 20 01:56:12 2019

Academic license - for non-commercial use only

Gurobi 8.1.1 (linux64, Python) logging started Fri Sep 20 01:57:05 2019

Academic license - for non-commercial use only

Gurobi 8.1.1 (linux64, Python) logging started Fri Sep 20 01:58:37 2019

Academic license - for non-commercial use only

Gurobi 8.1.1 (linux64, Python) logging started Fri Sep 20 01:59:17 2019

Academic license - for non-commercial use only

Gurobi 8.1.1 (linux64, Python) logging started Sun Oct  6 20:56:26 2019

Academic license - for non-commercial use only

Gurobi 8.1.1 (linux64, Python) logging started Sun Oct  6 20:57:24 2019

Academic license - for non-commercial use only

Gurobi 8.1.1 (linux64, Python) logging started Sun Oct  6 20:57:57 2019

Academic license - for non-commercial use only

Gurobi 8.1.1 (linux64, Python) logging started Sun Oct  6 21:49:51 2019

Academic license - for non-commercial use only

Gurobi 8.1.1 (linux64, Python) logging started Sun Oct  6 21:53:03 2019

Academic license - for non-commercial use only

Gurobi 8.1.1 (linux64, Python) logging started Sun Oct  6 21:55:11 2019

Academic license - for non-commercial use only

Gurobi 8.1.1 (linux64, Python) logging started Sun Oct  6 21:56:53 2019

Academic license - for non-commercial use only

Gurobi 8.1.1 (linux64, Python) logging started Sun Oct  6 21:57:47 2019

Academic license - for non-commercial use only

Gurobi 8.1.1 (linux64, Python) logging started Sun Oct  6 21:58:43 2019

Academic license - for non-commercial use only

Gurobi 8.1.1 (linux64, Python) logging started Sun Oct  6 21:59:43 2019

Academic license - for non-commercial use only

Gurobi 8.1.1 (linux64, Python) logging started Sun Oct  6 22:03:02 2019

Academic license - for non-commercial use only

Gurobi 8.1.1 (linux64, Python) logging started Sun Oct  6 22:03:55 2019

Academic license - for non-commercial use only

Gurobi 8.1.1 (linux64, Python) logging started Sun Oct  6 22:36:10 2019

Academic license - for non-commercial use only

Gurobi 8.1.1 (linux64, Python) logging started Sun Oct  6 22:37:50 2019

Academic license - for non-commercial use only

Gurobi 8.1.1 (linux64, Python) logging started Sun Oct  6 22:37:59 2019

Academic license - for non-commercial use only

Gurobi 8.1.1 (linux64, Python) logging started Sun Oct  6 22:44:00 2019

Academic license - for non-commercial use only

Gurobi 8.1.1 (linux64, Python) logging started Sun Oct  6 22:44:08 2019

Academic license - for non-commercial use only

Gurobi 8.1.1 (linux64, Python) logging started Sun Oct  6 22:49:41 2019

Academic license - for non-commercial use only
